90
2364
23
16
73
32
70
33
91
78
82
24
54
91
49
34
10
44
95
72
81
37
68
82
5
60
0 3
0 4
0 5
0 9
0 11
0 12
0 13
0 15
0 16
0 18
0 19
0 20
0 21
0 22
0 25
0 26
0 27
0 32
0 34
0 35
0 39
0 41
0 42
0 43
0 44
0 45
0 46
0 48
0 50
0 52
0 57
0 58
0 61
0 63
0 65
0 67
0 68
0 71
0 72
0 73
0 77
0 79
0 80
0 83
0 84
0 88
1 2
1 4
1 5
1 6
1 10
1 11
1 12
1 14
1 15
1 16
1 17
1 18
1 20
1 23
1 27
1 29
1 30
1 33
1 34
1 36
1 40
1 41
1 42
1 44
1 45
1 46
1 47
1 49
1 50
1 52
1 53
1 55
1 56
1 58
1 59
1 62
1 63
1 65
1 66
1 67
1 68
1 69
1 74
1 75
1 77
1 78
1 79
1 80
1 82
1 83
1 84
1 87
2 3
2 4
2 5
2 6
2 10
2 13
2 14
2 15
2 17
2 18
2 19
2 22
2 24
2 25
2 27
2 28
2 31
2 32
2 35
2 37
2 38
2 39
2 40
2 41
2 43
2 46
2 51
2 52
2 55
2 57
2 58
2 59
2 63
2 64
2 66
2 68
2 69
2 70
2 76
2 78
2 79
2 80
2 82
2 83
2 85
2 87
2 88
2 89
3 4
3 5
3 7
3 8
3 9
3 10
3 15
3 16
3 17
3 19
3 20
3 21
3 23
3 24
3 26
3 27
3 28
3 29
3 30
3 32
3 33
3 34
3 35
3 36
3 39
3 40
3 41
3 42
3 43
3 45
3 46
3 50
3 51
3 52
3 56
3 57
3 59
3 60
3 61
3 64
3 66
3 67
3 69
3 70
3 71
3 74
3 75
3 76
3 77
3 78
3 79
3 80
3 81
3 84
3 85
3 87
3 88
3 89
4 5
4 7
4 8
4 9
4 12
4 20
4 23
4 26
4 27
4 28
4 31
4 34
4 37
4 39
4 41
4 43
4 45
4 47
4 49
4 50
4 51
4 54
4 55
4 57
4 58
4 59
4 60
4 61
4 62
4 63
4 64
4 65
4 67
4 68
4 70
4 71
4 72
4 74
4 75
4 77
4 78
4 79
4 80
4 81
4 82
4 86
5 7
5 9
5 11
5 12
5 13
5 16
5 18
5 19
5 20
5 22
5 24
5 25
5 26
5 27
5 29
5 30
5 36
5 37
5 38
5 39
5 40
5 42
5 43
5 44
5 45
5 46
5 47
5 48
5 49
5 50
5 52
5 58
5 59
5 63
5 64
5 66
5 67
5 68
5 69
5 70
5 71
5 72
5 73
5 76
5 77
5 78
5 79
5 80
5 81
5 82
5 83
5 85
5 87
5 88
6 7
6 9
6 12
6 13
6 15
6 17
6 18
6 19
6 20
6 21
6 22
6 24
6 25
6 27
6 29
6 31
6 32
6 34
6 35
6 36
6 38
6 40
6 44
6 48
6 50
6 52
6 54
6 56
6 57
6 59
6 61
6 63
6 64
6 65
6 69
6 70
6 71
6 72
6 73
6 74
6 75
6 76
6 77
6 78
6 79
6 80
6 82
6 83
6 84
6 85
6 86
6 88
6 89
7 8
7 9
7 10
7 11
7 12
7 13
7 14
7 16
7 18
7 20
7 21
7 22
7 23
7 24
7 25
7 26
7 27
7 28
7 30
7 31
7 32
7 35
7 37
7 39
7 40
7 41
7 42
7 44
7 46
7 48
7 49
7 50
7 52
7 53
7 55
7 56
7 60
7 61
7 62
7 65
7 66
7 67
7 68
7 69
7 70
7 72
7 73
7 74
7 75
7 76
7 78
7 79
7 80
7 81
7 83
7 84
7 85
7 86
8 11
8 15
8 16
8 17
8 19
8 21
8 22
8 25
8 27
8 31
8 32
8 33
8 35
8 36
8 37
8 38
8 40
8 41
8 42
8 44
8 45
8 46
8 47
8 48
8 49
8 51
8 53
8 54
8 57
8 58
8 59
8 60
8 61
8 63
8 64
8 65
8 67
8 69
8 70
8 75
8 76
8 77
8 79
8 80
8 81
8 82
8 84
8 85
8 86
8 89
9 14
9 17
9 20
9 21
9 22
9 24
9 25
9 30
9 31
9 32
9 33
9 34
9 35
9 36
9 37
9 40
9 41
9 43
9 44
9 45
9 46
9 47
9 48
9 51
9 52
9 53
9 55
9 56
9 57
9 58
9 61
9 62
9 64
9 67
9 68
9 69
9 71
9 73
9 75
9 78
9 79
9 80
9 83
9 87
9 88
9 89
10 14
10 21
10 26
10 28
10 29
10 30
10 33
10 35
10 38
10 46
10 47
10 48
10 50
10 51
10 53
10 54
10 55
10 56
10 57
10 59
10 61
10 62
10 64
10 65
10 66
10 68
10 70
10 71
10 72
10 73
10 75
10 76
10 77
10 79
10 80
10 81
10 82
10 83
10 85
10 86
10 88
10 89
11 12
11 13
11 14
11 17
11 19
11 21
11 24
11 26
11 28
11 31
11 32
11 33
11 37
11 38
11 39
11 41
11 42
11 43
11 46
11 47
11 50
11 51
11 52
11 53
11 57
11 60
11 62
11 64
11 66
11 67
11 68
11 70
11 72
11 73
11 76
11 77
11 78
11 79
11 80
11 81
11 83
11 86
11 89
12 13
12 16
12 20
12 21
12 24
12 25
12 29
12 30
12 31
12 32
12 34
12 35
12 36
12 37
12 40
12 48
12 50
12 54
12 56
12 60
12 62
12 63
12 64
12 66
12 68
12 71
12 74
12 75
12 76
12 77
12 80
12 82
12 84
12 85
12 87
12 88
12 89
13 14
13 15
13 16
13 17
13 18
13 23
13 24
13 25
13 26
13 28
13 29
13 30
13 31
13 32
13 33
13 35
13 37
13 39
13 40
13 41
13 44
13 46
13 48
13 51
13 53
13 54
13 56
13 57
13 62
13 63
13 65
13 68
13 69
13 71
13 73
13 74
13 75
13 78
13 79
13 80
13 82
13 83
13 85
13 86
13 89
14 17
14 18
14 19
14 21
14 26
14 28
14 29
14 32
14 34
14 35
14 36
14 38
14 40
14 41
14 43
14 44
14 47
14 49
14 50
14 52
14 54
14 55
14 56
14 57
14 58
14 60
14 61
14 64
14 67
14 70
14 71
14 72
14 73
14 75
14 76
14 78
14 80
14 81
14 82
14 84
14 88
14 89
15 16
15 17
15 18
15 19
15 22
15 23
15 24
15 25
15 26
15 27
15 29
15 30
15 32
15 33
15 34
15 35
15 36
15 37
15 39
15 41
15 42
15 44
15 45
15 47
15 48
15 49
15 50
15 51
15 55
15 56
15 57
15 58
15 60
15 61
15 64
15 65
15 66
15 67
15 68
15 69
15 70
15 72
15 74
15 75
15 77
15 78
15 79
15 80
15 81
15 83
15 84
15 85
15 87
15 88
15 89
16 17
16 18
16 20
16 21
16 25
16 26
16 28
16 32
16 37
16 38
16 42
16 44
16 45
16 46
16 48
16 49
16 50
16 51
16 52
16 56
16 58
16 61
16 62
16 64
16 68
16 70
16 72
16 73
16 75
16 76
16 81
16 82
16 85
16 88
17 19
17 21
17 23
17 26
17 27
17 28
17 29
17 33
17 35
17 39
17 42
17 44
17 45
17 46
17 50
17 51
17 52
17 53
17 54
17 56
17 57
17 59
17 60
17 61
17 64
17 65
17 67
17 69
17 72
17 73
17 76
17 77
17 80
17 81
17 82
17 83
17 85
17 87
17 88
17 89
18 19
18 20
18 22
18 24
18 27
18 28
18 30
18 31
18 32
18 33
18 34
18 35
18 36
18 38
18 41
18 42
18 43
18 44
18 45
18 47
18 48
18 49
18 51
18 52
18 55
18 56
18 59
18 60
18 61
18 63
18 64
18 65
18 67
18 68
18 69
18 70
18 71
18 73
18 74
18 75
18 77
18 79
18 81
18 83
18 84
18 85
18 88
18 89
19 20
19 21
19 22
19 23
19 26
19 29
19 31
19 32
19 33
19 36
19 37
19 38
19 39
19 40
19 41
19 42
19 43
19 45
19 46
19 47
19 48
19 49
19 50
19 51
19 53
19 55
19 56
19 57
19 58
19 59
19 62
19 63
19 64
19 65
19 66
19 68
19 69
19 71
19 72
19 74
19 75
19 76
19 77
19 81
19 82
19 83
19 84
19 86
19 87
19 88
20 24
20 25
20 27
20 28
20 31
20 32
20 34
20 35
20 36
20 37
20 38
20 40
20 41
20 43
20 44
20 45
20 48
20 49
20 51
20 52
20 53
20 54
20 55
20 57
20 59
20 60
20 61
20 62
20 69
20 72
20 74
20 75
20 76
20 77
20 78
20 80
20 83
20 84
21 23
21 24
21 25
21 26
21 27
21 28
21 32
21 35
21 36
21 38
21 39
21 42
21 45
21 47
21 48
21 50
21 51
21 52
21 53
21 54
21 56
21 58
21 60
21 61
21 64
21 65
21 66
21 67
21 68
21 69
21 71
21 72
21 73
21 79
21 80
21 83
21 85
21 87
21 88
21 89
22 23
22 26
22 27
22 28
22 29
22 30
22 31
22 32
22 34
22 35
22 36
22 37
22 38
22 39
22 40
22 43
22 44
22 46
22 47
22 48
22 51
22 52
22 53
22 54
22 57
22 58
22 61
22 62
22 63
22 64
22 65
22 66
22 67
22 68
22 69
22 70
22 71
22 72
22 73
22 74
22 78
22 79
22 80
22 81
22 82
22 83
22 85
22 86
22 89
23 24
23 25
23 26
23 27
23 30
23 31
23 32
23 34
23 35
23 36
23 37
23 39
23 40
23 41
23 42
23 43
23 45
23 48
23 51
23 52
23 53
23 55
23 56
23 59
23 60
23 66
23 70
23 72
23 73
23 75
23 76
23 77
23 78
23 79
23 80
23 82
23 84
23 85
23 86
23 87
23 88
23 89
24 26
24 29
24 32
24 34
24 37
24 38
24 41
24 42
24 46
24 47
24 48
24 50
24 57
24 58
24 60
24 61
24 63
24 64
24 66
24 71
24 74
24 81
24 83
24 84
24 85
24 86
24 88
24 89
25 26
25 28
25 29
25 30
25 31
25 32
25 33
25 35
25 36
25 37
25 38
25 39
25 40
25 41
25 45
25 53
25 54
25 56
25 58
25 61
25 62
25 63
25 64
25 65
25 66
25 67
25 68
25 69
25 72
25 73
25 74
25 75
25 76
25 79
25 80
25 81
25 82
25 85
25 86
25 87
25 89
26 27
26 28
26 29
26 31
26 32
26 33
26 36
26 38
26 39
26 40
26 42
26 43
26 44
26 45
26 46
26 47
26 48
26 49
26 53
26 55
26 56
26 59
26 60
26 61
26 62
26 63
26 64
26 67
26 68
26 69
26 71
26 72
26 73
26 75
26 76
26 78
26 79
26 80
26 81
26 82
26 84
26 85
26 87
26 88
27 28
27 30
27 31
27 34
27 35
27 36
27 40
27 42
27 43
27 44
27 45
27 46
27 48
27 49
27 50
27 51
27 52
27 57
27 60
27 62
27 64
27 66
27 67
27 71
27 72
27 74
27 75
27 76
27 77
27 84
27 87
27 89
28 29
28 30
28 31
28 35
28 37
28 39
28 41
28 42
28 43
28 45
28 47
28 48
28 50
28 51
28 52
28 53
28 56
28 57
28 60
28 62
28 63
28 66
28 68
28 70
28 71
28 72
28 73
28 75
28 76
28 78
28 79
28 80
28 82
28 84
28 85
28 87
28 89
29 30
29 32
29 33
29 35
29 36
29 37
29 40
29 41
29 42
29 45
29 50
29 51
29 52
29 53
29 57
29 60
29 65
29 66
29 69
29 70
29 71
29 72
29 74
29 75
29 77
29 79
29 80
29 82
29 83
29 84
29 85
29 89
30 31
30 32
30 34
30 35
30 36
30 37
30 38
30 40
30 41
30 42
30 44
30 45
30 46
30 47
30 48
30 49
30 50
30 53
30 54
30 55
30 57
30 58
30 60
30 63
30 66
30 68
30 69
30 71
30 72
30 73
30 74
30 76
30 77
30 78
30 80
30 82
30 83
30 84
30 86
30 87
30 89
31 32
31 34
31 35
31 36
31 37
31 38
31 39
31 40
31 43
31 44
31 45
31 46
31 49
31 50
31 55
31 57
31 61
31 63
31 64
31 66
31 70
31 74
31 75
31 76
31 79
31 80
31 81
31 82
31 83
31 85
31 86
31 87
32 33
32 34
32 36
32 38
32 39
32 40
32 41
32 42
32 46
32 52
32 53
32 55
32 56
32 57
32 58
32 59
32 60
32 61
32 66
32 67
32 71
32 72
32 74
32 75
32 77
32 78
32 82
32 83
32 84
32 86
32 88
33 34
33 36
33 37
33 39
33 40
33 42
33 43
33 45
33 46
33 49
33 50
33 53
33 54
33 57
33 60
33 61
33 62
33 63
33 64
33 65
33 66
33 68
33 70
33 73
33 76
33 77
33 78
33 80
33 84
33 87
33 89
34 37
34 38
34 39
34 40
34 41
34 43
34 45
34 46
34 48
34 49
34 50
34 54
34 55
34 56
34 57
34 59
34 60
34 62
34 64
34 65
34 68
34 69
34 70
34 71
34 72
34 74
34 78
34 80
34 81
34 82
34 84
34 85
34 87
34 88
34 89
35 37
35 39
35 41
35 42
35 44
35 46
35 48
35 49
35 51
35 52
35 55
35 56
35 57
35 58
35 63
35 66
35 67
35 68
35 72
35 73
35 74
35 76
35 77
35 80
35 81
35 82
35 83
35 87
35 89
36 37
36 40
36 41
36 42
36 43
36 44
36 45
36 46
36 47
36 48
36 49
36 53
36 54
36 56
36 57
36 58
36 60
36 61
36 62
36 64
36 65
36 66
36 67
36 70
36 71
36 72
36 78
36 79
36 82
36 84
36 86
36 88
36 89
37 41
37 42
37 43
37 44
37 45
37 46
37 47
37 49
37 50
37 51
37 52
37 53
37 54
37 55
37 58
37 59
37 60
37 61
37 64
37 65
37 67
37 70
37 71
37 72
37 73
37 78
37 80
37 81
37 82
37 85
37 86
37 87
37 88
38 39
38 40
38 41
38 43
38 44
38 45
38 48
38 51
38 52
38 55
38 56
38 57
38 58
38 60
38 61
38 62
38 64
38 65
38 67
38 68
38 72
38 74
38 76
38 79
38 81
38 82
38 83
38 84
38 85
38 87
38 89
39 41
39 44
39 45
39 46
39 47
39 49
39 50
39 51
39 52
39 55
39 56
39 57
39 58
39 60
39 65
39 66
39 67
39 69
39 70
39 71
39 73
39 75
39 76
39 78
39 80
39 81
39 82
39 84
39 85
39 86
39 87
39 89
40 41
40 42
40 43
40 45
40 46
40 47
40 48
40 49
40 50
40 52
40 54
40 55
40 56
40 58
40 59
40 63
40 64
40 67
40 72
40 75
40 76
40 79
40 80
40 83
40 84
40 85
40 88
41 42
41 43
41 44
41 45
41 46
41 50
41 51
41 56
41 57
41 58
41 60
41 61
41 63
41 64
41 65
41 67
41 68
41 70
41 71
41 72
41 73
41 74
41 79
41 87
42 43
42 45
42 46
42 47
42 48
42 50
42 51
42 52
42 53
42 54
42 56
42 59
42 60
42 61
42 62
42 64
42 65
42 67
42 68
42 69
42 72
42 73
42 74
42 77
42 78
42 80
42 81
42 82
42 84
42 86
42 87
43 45
43 47
43 49
43 51
43 53
43 59
43 60
43 62
43 64
43 67
43 69
43 70
43 71
43 72
43 73
43 76
43 77
43 81
43 82
43 83
43 84
43 85
43 86
44 46
44 47
44 49
44 50
44 52
44 53
44 54
44 55
44 56
44 57
44 58
44 59
44 60
44 62
44 63
44 65
44 66
44 67
44 68
44 69
44 71
44 72
44 74
44 77
44 78
44 79
44 81
44 82
44 84
44 85
44 86
44 88
44 89
45 46
45 47
45 48
45 49
45 51
45 52
45 53
45 56
45 57
45 58
45 59
45 62
45 63
45 64
45 65
45 66
45 67
45 68
45 69
45 70
45 72
45 74
45 77
45 78
45 79
45 86
45 87
45 88
46 47
46 51
46 52
46 53
46 54
46 55
46 59
46 61
46 62
46 64
46 66
46 69
46 70
46 75
46 76
46 77
46 79
46 81
46 82
46 83
46 86
46 89
47 48
47 50
47 51
47 52
47 53
47 54
47 55
47 59
47 60
47 61
47 62
47 65
47 66
47 67
47 69
47 70
47 71
47 72
47 73
47 76
47 77
47 79
47 80
47 81
47 84
47 85
47 86
47 87
47 88
47 89
48 50
48 51
48 52
48 53
48 54
48 55
48 57
48 58
48 61
48 62
48 64
48 66
48 68
48 70
48 71
48 72
48 73
48 76
48 77
48 78
48 80
48 82
48 83
48 85
48 88
48 89
49 50
49 51
49 54
49 55
49 57
49 58
49 60
49 64
49 65
49 66
49 68
49 72
49 73
49 74
49 75
49 76
49 77
49 78
49 81
49 84
49 87
49 88
49 89
50 56
50 58
50 60
50 63
50 64
50 65
50 70
50 72
50 73
50 74
50 75
50 76
50 78
50 79
50 81
50 83
50 85
50 86
50 87
51 53
51 54
51 58
51 59
51 61
51 62
51 64
51 65
51 66
51 67
51 68
51 69
51 70
51 71
51 73
51 74
51 75
51 78
51 79
51 80
51 81
51 82
51 83
51 88
51 89
52 53
52 55
52 58
52 59
52 61
52 66
52 67
52 70
52 71
52 75
52 76
52 77
52 78
52 79
52 80
52 81
52 85
52 87
52 89
53 54
53 55
53 57
53 58
53 59
53 62
53 64
53 67
53 69
53 70
53 72
53 74
53 75
53 76
53 78
53 79
53 80
53 81
53 82
53 83
53 84
53 86
53 87
53 88
54 56
54 58
54 61
54 62
54 63
54 65
54 67
54 68
54 70
54 72
54 73
54 74
54 76
54 77
54 79
54 81
54 82
54 83
54 85
54 86
54 88
54 89
55 62
55 64
55 66
55 69
55 70
55 72
55 73
55 74
55 79
55 80
55 81
55 82
55 83
56 57
56 59
56 63
56 64
56 66
56 68
56 69
56 71
56 78
56 79
56 80
56 82
56 83
56 84
56 85
56 87
57 58
57 59
57 60
57 63
57 64
57 66
57 68
57 70
57 71
57 72
57 73
57 74
57 76
57 77
57 78
57 79
57 80
57 82
57 85
57 86
57 88
57 89
58 62
58 64
58 66
58 67
58 69
58 72
58 73
58 74
58 76
58 78
58 80
58 82
58 83
58 84
58 86
58 87
58 88
58 89
59 66
59 69
59 71
59 72
59 74
59 78
59 80
59 82
59 83
59 85
59 87
59 88
59 89
60 61
60 63
60 64
60 65
60 66
60 67
60 68
60 69
60 72
60 77
60 78
60 79
60 81
60 83
60 85
60 86
60 88
60 89
61 63
61 66
61 67
61 69
61 71
61 72
61 73
61 74
61 76
61 77
61 78
61 79
61 82
61 85
61 87
62 64
62 67
62 68
62 69
62 70
62 71
62 73
62 75
62 76
62 81
62 85
62 86
62 88
63 67
63 68
63 69
63 71
63 72
63 74
63 75
63 76
63 77
63 81
63 87
63 88
64 65
64 66
64 67
64 69
64 70
64 72
64 73
64 77
64 79
64 80
64 81
64 82
64 84
64 85
64 87
64 89
65 67
65 70
65 71
65 73
65 74
65 75
65 76
65 77
65 78
65 81
65 82
65 83
65 84
65 86
65 87
65 88
66 67
66 68
66 69
66 70
66 71
66 72
66 75
66 77
66 78
66 79
66 80
66 81
66 82
66 85
67 68
67 69
67 73
67 75
67 77
67 78
67 80
67 81
67 82
67 83
67 85
67 86
67 87
67 88
67 89
68 73
68 75
68 77
68 79
68 80
68 81
68 82
68 85
68 86
69 70
69 72
69 73
69 75
69 77
69 79
69 81
69 82
69 83
69 84
69 85
69 87
69 89
70 72
70 74
70 75
70 77
70 78
70 80
70 81
70 82
70 83
70 84
70 85
70 87
70 89
71 73
71 74
71 75
71 76
71 77
71 78
71 79
71 81
71 83
71 84
71 85
71 88
71 89
72 74
72 75
72 76
72 77
72 79
72 80
72 81
72 83
72 84
73 74
73 76
73 81
73 82
73 83
73 85
73 89
74 78
74 80
74 83
74 84
74 86
74 87
74 88
75 78
75 80
75 82
75 83
75 85
75 86
75 87
75 88
76 77
76 78
76 79
76 80
76 81
76 84
76 86
77 80
77 81
77 82
77 87
77 89
78 79
78 81
78 82
78 84
78 85
78 86
79 83
79 85
79 86
79 88
80 81
80 82
80 84
80 86
80 87
80 88
80 89
81 82
81 84
81 85
81 87
81 89
82 83
82 84
82 85
82 86
82 88
83 84
83 86
83 88
83 89
84 86
84 87
84 89
85 88
85 89
86 88
86 89
26 1 51 78
3 73 8 77
17 48 25 2
22 75 47 41
62 6 12 20
52 21 38 58
16 29 7 32
65 59 14 18
40 80 46 74
61 87 49 68
9 84 72 81
55 5 79 37
44 82 50 43
39 64 11 33
27 88 36 42
28 24 66 67
86 70 54 0
15 19 31 85
69 53 76 57
56 63 10 35
71 23 45 30
89 60 34 13
4 83
